NAME: random_70_0
TYPE: TSP
COMMENT: random_70_0
DIMENSION: 70
EDGE_WEIGHT_TYPE: EUC_2D
NODE_COORD_SECTION
1 380 278
2 328 300
3 447 474
4 9 150
5 358 381
6 444 326
7 224 404
8 12 77
9 316 61
10 224 236
11 415 49
12 99 148
13 406 42
14 445 266
15 105 321
16 466 434
17 1 4
18 225 67
19 30 109
20 184 311
21 92 279
22 301 1
23 458 339
24 341 270
25 387 382
26 124 312
27 91 325
28 408 347
29 372 23
30 57 393
31 326 353
32 351 208
33 425 16
34 174 123
35 456 490
36 427 475
37 325 362
38 165 76
39 374 181
40 269 10
41 220 102
42 438 355
43 134 177
44 389 45
45 203 467
46 200 181
47 315 264
48 155 410
49 145 440
50 16 496
51 360 442
52 357 474
53 328 236
54 442 38
55 402 292
56 16 424
57 86 383
58 476 443
59 41 119
60 380 430
61 357 448
62 466 136
63 288 115
64 261 492
65 98 298
66 74 409
67 136 14
68 193 152
69 30 387
70 470 195
